p cnf 390 680
11 18 -47 51 52 0
11 18 -47 51 -52 0
11 18 -47 -51 52 0
11 18 -47 -51 -52 0
11 12 -18 53 54 0
11 12 -18 53 -54 0
11 12 -18 -53 54 0
11 12 -18 -53 -54 0
11 22 25 55 56 0
11 22 25 55 -56 0
11 22 25 -55 56 0
11 22 25 -55 -56 0
-22 25 42 57 58 0
-22 25 42 57 -58 0
-22 25 42 -57 58 0
-22 25 42 -57 -58 0
11 -12 -42 59 60 0
11 -12 -42 59 -60 0
11 -12 -42 -59 60 0
11 -12 -42 -59 -60 0
-11 25 -47 61 62 0
-11 25 -47 61 -62 0
-11 25 -47 -61 62 0
-11 25 -47 -61 -62 0
14 16 27 63 64 0
14 16 27 63 -64 0
14 16 27 -63 64 0
14 16 27 -63 -64 0
14 -16 27 65 66 0
14 -16 27 65 -66 0
14 -16 27 -65 66 0
14 -16 27 -65 -66 0
-14 -25 28 67 68 0
-14 -25 28 67 -68 0
-14 -25 28 -67 68 0
-14 -25 28 -67 -68 0
27 -28 32 69 70 0
27 -28 32 69 -70 0
27 -28 32 -69 70 0
27 -28 32 -69 -70 0
-14 -28 -32 71 72 0
-14 -28 -32 71 -72 0
-14 -28 -32 -71 72 0
-14 -28 -32 -71 -72 0
-25 -27 -47 73 74 0
-25 -27 -47 73 -74 0
-25 -27 -47 -73 74 0
-25 -27 -47 -73 -74 0
39 46 47 75 76 0
39 46 47 75 -76 0
39 46 47 -75 76 0
39 46 47 -75 -76 0
24 39 48 77 78 0
24 39 48 77 -78 0
24 39 48 -77 78 0
24 39 48 -77 -78 0
-24 39 47 79 80 0
-24 39 47 79 -80 0
-24 39 47 -79 80 0
-24 39 47 -79 -80 0
1 -39 48 81 82 0
1 -39 48 81 -82 0
1 -39 48 -81 82 0
1 -39 48 -81 -82 0
10 30 -48 83 84 0
10 30 -48 83 -84 0
10 30 -48 -83 84 0
10 30 -48 -83 -84 0
10 23 -30 85 86 0
10 23 -30 85 -86 0
10 23 -30 -85 86 0
10 23 -30 -85 -86 0
-10 23 31 87 88 0
-10 23 31 87 -88 0
-10 23 31 -87 88 0
-10 23 31 -87 -88 0
-10 -31 37 89 90 0
-10 -31 37 89 -90 0
-10 -31 37 -89 90 0
-10 -31 37 -89 -90 0
22 23 -37 91 92 0
22 23 -37 91 -92 0
22 23 -37 -91 92 0
22 23 -37 -91 -92 0
22 -37 -44 93 94 0
22 -37 -44 93 -94 0
22 -37 -44 -93 94 0
22 -37 -44 -93 -94 0
-22 -37 47 95 96 0
-22 -37 47 95 -96 0
-22 -37 47 -95 96 0
-22 -37 47 -95 -96 0
-23 45 -48 97 98 0
-23 45 -48 97 -98 0
-23 45 -48 -97 98 0
-23 45 -48 -97 -98 0
-23 29 -45 99 100 0
-23 29 -45 99 -100 0
-23 29 -45 -99 100 0
-23 29 -45 -99 -100 0
-23 -29 -48 101 102 0
-23 -29 -48 101 -102 0
-23 -29 -48 -101 102 0
-23 -29 -48 -101 -102 0
2 42 -50 103 104 0
2 42 -50 103 -104 0
2 42 -50 -103 104 0
2 42 -50 -103 -104 0
-1 2 -50 105 106 0
-1 2 -50 105 -106 0
-1 2 -50 -105 106 0
-1 2 -50 -105 -106 0
-1 -2 -50 107 108 0
-1 -2 -50 107 -108 0
-1 -2 -50 -107 108 0
-1 -2 -50 -107 -108 0
-1 -7 50 109 110 0
-1 -7 50 109 -110 0
-1 -7 50 -109 110 0
-1 -7 50 -109 -110 0
-6 7 50 111 112 0
-6 7 50 111 -112 0
-6 7 50 -111 112 0
-6 7 50 -111 -112 0
7 26 50 113 114 0
7 26 50 113 -114 0
7 26 50 -113 114 0
7 26 50 -113 -114 0
7 26 -42 115 116 0
7 26 -42 115 -116 0
7 26 -42 -115 116 0
7 26 -42 -115 -116 0
2 44 50 117 118 0
2 44 50 117 -118 0
2 44 50 -117 118 0
2 44 50 -117 -118 0
2 44 -45 119 120 0
2 44 -45 119 -120 0
2 44 -45 -119 120 0
2 44 -45 -119 -120 0
2 -26 -44 121 122 0
2 -26 -44 121 -122 0
2 -26 -44 -121 122 0
2 -26 -44 -121 -122 0
6 23 42 123 124 0
6 23 42 123 -124 0
6 23 42 -123 124 0
6 23 42 -123 -124 0
6 7 23 125 126 0
6 7 23 125 -126 0
6 7 23 -125 126 0
6 7 23 -125 -126 0
6 -7 50 127 128 0
6 -7 50 127 -128 0
6 -7 50 -127 128 0
6 -7 50 -127 -128 0
-2 34 49 129 130 0
-2 34 49 129 -130 0
-2 34 49 -129 130 0
-2 34 49 -129 -130 0
-2 -23 -34 131 132 0
-2 -23 -34 131 -132 0
-2 -23 -34 -131 132 0
-2 -23 -34 -131 -132 0
6 18 -49 133 134 0
6 18 -49 133 -134 0
6 18 -49 -133 134 0
6 18 -49 -133 -134 0
4 -20 -26 135 136 0
4 -20 -26 135 -136 0
4 -20 -26 -135 136 0
4 -20 -26 -135 -136 0
-4 -18 -20 137 138 0
-4 -18 -20 137 -138 0
-4 -18 -20 -137 138 0
-4 -18 -20 -137 -138 0
-2 -18 22 139 140 0
-2 -18 22 139 -140 0
-2 -18 22 -139 140 0
-2 -18 22 -139 -140 0
-2 22 -25 141 142 0
-2 22 -25 141 -142 0
-2 22 -25 -141 142 0
-2 22 -25 -141 -142 0
-16 20 -23 143 144 0
-16 20 -23 143 -144 0
-16 20 -23 -143 144 0
-16 20 -23 -143 -144 0
6 8 -22 145 146 0
6 8 -22 145 -146 0
6 8 -22 -145 146 0
6 8 -22 -145 -146 0
-6 32 49 147 148 0
-6 32 49 147 -148 0
-6 32 49 -147 148 0
-6 32 49 -147 -148 0
-6 8 -49 149 150 0
-6 8 -49 149 -150 0
-6 8 -49 -149 150 0
-6 8 -49 -149 -150 0
-8 21 -22 151 152 0
-8 21 -22 151 -152 0
-8 21 -22 -151 152 0
-8 21 -22 -151 -152 0
21 -32 -44 153 154 0
21 -32 -44 153 -154 0
21 -32 -44 -153 154 0
21 -32 -44 -153 -154 0
10 16 -21 155 156 0
10 16 -21 155 -156 0
10 16 -21 -155 156 0
10 16 -21 -155 -156 0
4 -10 -21 157 158 0
4 -10 -21 157 -158 0
4 -10 -21 -157 158 0
4 -10 -21 -157 -158 0
-21 -22 -44 159 160 0
-21 -22 -44 159 -160 0
-21 -22 -44 -159 160 0
-21 -22 -44 -159 -160 0
16 20 -27 161 162 0
16 20 -27 161 -162 0
16 20 -27 -161 162 0
16 20 -27 -161 -162 0
9 -18 -27 163 164 0
9 -18 -27 163 -164 0
9 -18 -27 -163 164 0
9 -18 -27 -163 -164 0
-9 -27 41 165 166 0
-9 -27 41 165 -166 0
-9 -27 41 -165 166 0
-9 -27 41 -165 -166 0
20 -27 -41 167 168 0
20 -27 -41 167 -168 0
20 -27 -41 -167 168 0
20 -27 -41 -167 -168 0
16 30 44 169 170 0
16 30 44 169 -170 0
16 30 44 -169 170 0
16 30 44 -169 -170 0
-13 16 30 171 172 0
-13 16 30 171 -172 0
-13 16 30 -171 172 0
-13 16 30 -171 -172 0
8 27 45 173 174 0
8 27 45 173 -174 0
8 27 45 -173 174 0
8 27 45 -173 -174 0
20 35 -45 175 176 0
20 35 -45 175 -176 0
20 35 -45 -175 176 0
20 35 -45 -175 -176 0
8 20 -35 177 178 0
8 20 -35 177 -178 0
8 20 -35 -177 178 0
8 20 -35 -177 -178 0
-1 8 20 179 180 0
-1 8 20 179 -180 0
-1 8 20 -179 180 0
-1 8 20 -179 -180 0
13 -15 46 181 182 0
13 -15 46 181 -182 0
13 -15 46 -181 182 0
13 -15 46 -181 -182 0
-13 -15 -30 183 184 0
-13 -15 -30 183 -184 0
-13 -15 -30 -183 184 0
-13 -15 -30 -183 -184 0
-15 -30 43 185 186 0
-15 -30 43 185 -186 0
-15 -30 43 -185 186 0
-15 -30 43 -185 -186 0
-15 -30 -43 187 188 0
-15 -30 -43 187 -188 0
-15 -30 -43 -187 188 0
-15 -30 -43 -187 -188 0
-8 -12 15 189 190 0
-8 -12 15 189 -190 0
-8 -12 15 -189 190 0
-8 -12 15 -189 -190 0
-6 -8 -12 191 192 0
-6 -8 -12 191 -192 0
-6 -8 -12 -191 192 0
-6 -8 -12 -191 -192 0
-8 26 27 193 194 0
-8 26 27 193 -194 0
-8 26 27 -193 194 0
-8 26 27 -193 -194 0
-8 10 -26 195 196 0
-8 10 -26 195 -196 0
-8 10 -26 -195 196 0
-8 10 -26 -195 -196 0
15 -30 39 197 198 0
15 -30 39 197 -198 0
15 -30 39 -197 198 0
15 -30 39 -197 -198 0
12 21 34 199 200 0
12 21 34 199 -200 0
12 21 34 -199 200 0
12 21 34 -199 -200 0
15 21 -48 201 202 0
15 21 -48 201 -202 0
15 21 -48 -201 202 0
15 21 -48 -201 -202 0
15 -21 -48 203 204 0
15 -21 -48 203 -204 0
15 -21 -48 -203 204 0
15 -21 -48 -203 -204 0
3 5 -10 205 206 0
3 5 -10 205 -206 0
3 5 -10 -205 206 0
3 5 -10 -205 -206 0
-3 -10 38 207 208 0
-3 -10 38 207 -208 0
-3 -10 38 -207 208 0
-3 -10 38 -207 -208 0
5 -19 -38 209 210 0
5 -19 -38 209 -210 0
5 -19 -38 -209 210 0
5 -19 -38 -209 -210 0
-5 -19 -39 211 212 0
-5 -19 -39 211 -212 0
-5 -19 -39 -211 212 0
-5 -19 -39 -211 -212 0
29 37 48 213 214 0
29 37 48 213 -214 0
29 37 48 -213 214 0
29 37 48 -213 -214 0
12 29 -37 215 216 0
12 29 -37 215 -216 0
12 29 -37 -215 216 0
12 29 -37 -215 -216 0
-21 29 39 217 218 0
-21 29 39 217 -218 0
-21 29 39 -217 218 0
-21 29 39 -217 -218 0
12 -39 43 219 220 0
12 -39 43 219 -220 0
12 -39 43 -219 220 0
12 -39 43 -219 -220 0
29 -39 -43 221 222 0
29 -39 -43 221 -222 0
29 -39 -43 -221 222 0
29 -39 -43 -221 -222 0
13 19 -39 223 224 0
13 19 -39 223 -224 0
13 19 -39 -223 224 0
13 19 -39 -223 -224 0
17 46 48 225 226 0
17 46 48 225 -226 0
17 46 48 -225 226 0
17 46 48 -225 -226 0
17 -29 48 227 228 0
17 -29 48 227 -228 0
17 -29 48 -227 228 0
17 -29 48 -227 -228 0
12 -17 -34 229 230 0
12 -17 -34 229 -230 0
12 -17 -34 -229 230 0
12 -17 -34 -229 -230 0
13 -34 47 231 232 0
13 -34 47 231 -232 0
13 -34 47 -231 232 0
13 -34 47 -231 -232 0
-13 -34 47 233 234 0
-13 -34 47 233 -234 0
-13 -34 47 -233 234 0
-13 -34 47 -233 -234 0
1 -16 -29 235 236 0
1 -16 -29 235 -236 0
1 -16 -29 -235 236 0
1 -16 -29 -235 -236 0
1 28 31 237 238 0
1 28 31 237 -238 0
1 28 31 -237 238 0
1 28 31 -237 -238 0
19 -28 31 239 240 0
19 -28 31 239 -240 0
19 -28 31 -239 240 0
19 -28 31 -239 -240 0
1 -19 31 241 242 0
1 -19 31 241 -242 0
1 -19 31 -241 242 0
1 -19 31 -241 -242 0
1 -31 -47 243 244 0
1 -31 -47 243 -244 0
1 -31 -47 -243 244 0
1 -31 -47 -243 -244 0
-16 -17 43 245 246 0
-16 -17 43 245 -246 0
-16 -17 43 -245 246 0
-16 -17 43 -245 -246 0
36 -43 49 247 248 0
36 -43 49 247 -248 0
36 -43 49 -247 248 0
36 -43 49 -247 -248 0
-19 36 49 249 250 0
-19 36 49 249 -250 0
-19 36 49 -249 250 0
-19 36 49 -249 -250 0
-1 36 -49 251 252 0
-1 36 -49 251 -252 0
-1 36 -49 -251 252 0
-1 36 -49 -251 -252 0
-16 -36 -43 253 254 0
-16 -36 -43 253 -254 0
-16 -36 -43 -253 254 0
-16 -36 -43 -253 -254 0
-17 -34 -47 255 256 0
-17 -34 -47 255 -256 0
-17 -34 -47 -255 256 0
-17 -34 -47 -255 -256 0
-13 25 -45 257 258 0
-13 25 -45 257 -258 0
-13 25 -45 -257 258 0
-13 25 -45 -257 -258 0
19 35 -45 259 260 0
19 35 -45 259 -260 0
19 35 -45 -259 260 0
19 35 -45 -259 -260 0
-13 -25 -35 261 262 0
-13 -25 -35 261 -262 0
-13 -25 -35 -261 262 0
-13 -25 -35 -261 -262 0
-29 36 45 263 264 0
-29 36 45 263 -264 0
-29 36 45 -263 264 0
-29 36 45 -263 -264 0
14 34 46 265 266 0
14 34 46 265 -266 0
14 34 46 -265 266 0
14 34 46 -265 -266 0
14 34 -46 267 268 0
14 34 -46 267 -268 0
14 34 -46 -267 268 0
14 34 -46 -267 -268 0
-17 34 42 269 270 0
-17 34 42 269 -270 0
-17 34 42 -269 270 0
-17 34 42 -269 -270 0
-4 -17 42 271 272 0
-4 -17 42 271 -272 0
-4 -17 42 -271 272 0
-4 -17 42 -271 -272 0
-14 -31 -36 273 274 0
-14 -31 -36 273 -274 0
-14 -31 -36 -273 274 0
-14 -31 -36 -273 -274 0
-29 -31 -36 275 276 0
-29 -31 -36 275 -276 0
-29 -31 -36 -275 276 0
-29 -31 -36 -275 -276 0
-9 -42 45 277 278 0
-9 -42 45 277 -278 0
-9 -42 45 -277 278 0
-9 -42 45 -277 -278 0
-9 -24 -42 279 280 0
-9 -24 -42 279 -280 0
-9 -24 -42 -279 280 0
-9 -24 -42 -279 -280 0
-9 45 -46 281 282 0
-9 45 -46 281 -282 0
-9 45 -46 -281 282 0
-9 45 -46 -281 -282 0
-14 15 -41 283 284 0
-14 15 -41 283 -284 0
-14 15 -41 -283 284 0
-14 15 -41 -283 -284 0
-14 -15 44 285 286 0
-14 -15 44 285 -286 0
-14 -15 44 -285 286 0
-14 -15 44 -285 -286 0
-36 -41 -44 287 288 0
-36 -41 -44 287 -288 0
-36 -41 -44 -287 288 0
-36 -41 -44 -287 -288 0
12 -36 -41 289 290 0
12 -36 -41 289 -290 0
12 -36 -41 -289 290 0
12 -36 -41 -289 -290 0
-5 7 -41 291 292 0
-5 7 -41 291 -292 0
-5 7 -41 -291 292 0
-5 7 -41 -291 -292 0
3 -7 -12 293 294 0
3 -7 -12 293 -294 0
3 -7 -12 -293 294 0
3 -7 -12 -293 -294 0
-3 -7 -12 295 296 0
-3 -7 -12 295 -296 0
-3 -7 -12 -295 296 0
-3 -7 -12 -295 -296 0
18 33 -42 297 298 0
18 33 -42 297 -298 0
18 33 -42 -297 298 0
18 33 -42 -297 -298 0
-18 33 41 299 300 0
-18 33 41 299 -300 0
-18 33 41 -299 300 0
-18 33 41 -299 -300 0
-25 31 -33 301 302 0
-25 31 -33 301 -302 0
-25 31 -33 -301 302 0
-25 31 -33 -301 -302 0
9 13 38 303 304 0
9 13 38 303 -304 0
9 13 38 -303 304 0
9 13 38 -303 -304 0
-6 13 38 305 306 0
-6 13 38 305 -306 0
-6 13 38 -305 306 0
-6 13 38 -305 -306 0
9 25 38 307 308 0
9 25 38 307 -308 0
9 25 38 -307 308 0
9 25 38 -307 -308 0
-5 9 38 309 310 0
-5 9 38 309 -310 0
-5 9 38 -309 310 0
-5 9 38 -309 -310 0
9 -24 49 311 312 0
9 -24 49 311 -312 0
9 -24 49 -311 312 0
9 -24 49 -311 -312 0
-24 44 -49 313 314 0
-24 44 -49 313 -314 0
-24 44 -49 -313 314 0
-24 44 -49 -313 -314 0
-24 41 -49 315 316 0
-24 41 -49 315 -316 0
-24 41 -49 -315 316 0
-24 41 -49 -315 -316 0
-32 -33 -38 317 318 0
-32 -33 -38 317 -318 0
-32 -33 -38 -317 318 0
-32 -33 -38 -317 -318 0
10 24 32 319 320 0
10 24 32 319 -320 0
10 24 32 -319 320 0
10 24 32 -319 -320 0
11 24 32 321 322 0
11 24 32 321 -322 0
11 24 32 -321 322 0
11 24 32 -321 -322 0
-11 32 -35 323 324 0
-11 32 -35 323 -324 0
-11 32 -35 -323 324 0
-11 32 -35 -323 -324 0
4 35 -38 325 326 0
4 35 -38 325 -326 0
4 35 -38 -325 326 0
4 35 -38 -325 -326 0
-4 -5 35 327 328 0
-4 -5 35 327 -328 0
-4 -5 35 -327 328 0
-4 -5 35 -327 -328 0
-4 -5 -7 329 330 0
-4 -5 -7 329 -330 0
-4 -5 -7 -329 330 0
-4 -5 -7 -329 -330 0
24 35 46 331 332 0
24 35 46 331 -332 0
24 35 46 -331 332 0
24 35 46 -331 -332 0
-11 19 26 333 334 0
-11 19 26 333 -334 0
-11 19 26 -333 334 0
-11 19 26 -333 -334 0
-11 -19 -28 335 336 0
-11 -19 -28 335 -336 0
-11 -19 -28 -335 336 0
-11 -19 -28 -335 -336 0
-11 -26 -28 337 338 0
-11 -26 -28 337 -338 0
-11 -26 -28 -337 338 0
-11 -26 -28 -337 -338 0
5 41 43 339 340 0
5 41 43 339 -340 0
5 41 43 -339 340 0
5 41 43 -339 -340 0
5 43 -46 341 342 0
5 43 -46 341 -342 0
5 43 -46 -341 342 0
5 43 -46 -341 -342 0
35 -40 -43 343 344 0
35 -40 -43 343 -344 0
35 -40 -43 -343 344 0
35 -40 -43 -343 -344 0
36 40 -46 345 346 0
36 40 -46 345 -346 0
36 40 -46 -345 346 0
36 40 -46 -345 -346 0
26 40 -46 347 348 0
26 40 -46 347 -348 0
26 40 -46 -347 348 0
26 40 -46 -347 -348 0
4 17 40 349 350 0
4 17 40 349 -350 0
4 17 40 -349 350 0
4 17 40 -349 -350 0
4 -26 40 351 352 0
4 -26 40 351 -352 0
4 -26 40 -351 352 0
4 -26 40 -351 -352 0
3 28 30 353 354 0
3 28 30 353 -354 0
3 28 30 -353 354 0
3 28 30 -353 -354 0
3 -4 28 355 356 0
3 -4 28 355 -356 0
3 -4 28 -355 356 0
3 -4 28 -355 -356 0
-3 -37 40 357 358 0
-3 -37 40 357 -358 0
-3 -37 40 -357 358 0
-3 -37 40 -357 -358 0
-3 33 37 359 360 0
-3 33 37 359 -360 0
-3 33 37 -359 360 0
-3 33 37 -359 -360 0
24 33 -50 361 362 0
24 33 -50 361 -362 0
24 33 -50 -361 362 0
24 33 -50 -361 -362 0
33 37 -50 363 364 0
33 37 -50 363 -364 0
33 37 -50 -363 364 0
33 37 -50 -363 -364 0
21 -33 37 365 366 0
21 -33 37 365 -366 0
21 -33 37 -365 366 0
21 -33 37 -365 -366 0
17 -32 -40 367 368 0
17 -32 -40 367 -368 0
17 -32 -40 -367 368 0
17 -32 -40 -367 -368 0
5 -35 -40 369 370 0
5 -35 -40 369 -370 0
5 -35 -40 -369 370 0
5 -35 -40 -369 -370 0
-2 -35 36 371 372 0
-2 -35 36 371 -372 0
-2 -35 36 -371 372 0
-2 -35 36 -371 -372 0
-3 28 30 373 374 0
-3 28 30 373 -374 0
-3 28 30 -373 374 0
-3 28 30 -373 -374 0
3 17 41 375 376 0
3 17 41 375 -376 0
3 17 41 -375 376 0
3 17 41 -375 -376 0
17 19 -38 377 378 0
17 19 -38 377 -378 0
17 19 -38 -377 378 0
17 19 -38 -377 -378 0
18 -20 -33 379 380 0
18 -20 -33 379 -380 0
18 -20 -33 -379 380 0
18 -20 -33 -379 -380 0
14 18 -38 381 382 0
14 18 -38 381 -382 0
14 18 -38 -381 382 0
14 18 -38 -381 -382 0
-9 17 -33 383 384 0
-9 17 -33 383 -384 0
-9 17 -33 -383 384 0
-9 17 -33 -383 -384 0
17 -31 -40 385 386 0
17 -31 -40 385 -386 0
17 -31 -40 -385 386 0
17 -31 -40 -385 -386 0
-15 -20 28 387 388 0
-15 -20 28 387 -388 0
-15 -20 28 -387 388 0
-15 -20 28 -387 -388 0
-20 -32 -40 389 390 0
-20 -32 -40 389 -390 0
-20 -32 -40 -389 390 0
-20 -32 -40 -389 -390 0
